smt-logs/cvc5/real/beasties21.smt2.log
sat
(
(define-fun sym800 () String "G")
(define-fun sym209 () String "Y")
(define-fun sym1899 () String "P")
(define-fun sym2648 () String "A")
(define-fun sym551 () String "P")
(define-fun sym2117 () String "G")
(define-fun sym1038 () String "P")
(define-fun sym2333 () String "P")
(define-fun sym1256 () String "G")
(define-fun sym2551 () String "G")
(define-fun sym1472 () String "P")
(define-fun sym161 () String "")
(define-fun sym1690 () String "G")
)
